Maximize
  - 4.3368070684705 edge_0_2_0_0 - 2.1694657261441 edge_0_3_0_0
   - 3.847979819867 edge_0_4_0_0 - 3.8449592205752 edge_0_5_0_0
   - 3.218156942748 edge_0_6_0_0 - 2.4108421880218 edge_0_7_0_0
   - 5.5747747250754 edge_0_8_0_0 - 2.289576632364 edge_0_9_0_0
   - 2.7268623846126 edge_0_10_0_0 - 3.253713807393 edge_0_11_0_0
   - 2.2053521770336 edge_0_12_0_0 - 2.5450881495744 edge_0_14_0_0
   - 2.217667356524 edge_0_15_0_0 - 1.6450939186559 edge_0_16_0_0
   + 0.6181805693239236 edge_2_3_0_0 + 0.0961066112800944 edge_2_4_0_0
   + 0.3812693911281246 edge_2_5_0_0 - 0.2933853285692731 edge_2_6_0_0
   - 0.3620557724915577 edge_2_7_0_0 - 0.1175578349260684 edge_2_8_0_0
   - 0.1147024707244831 edge_2_9_0_0 - 0.9088380108228102 edge_2_15_0_0
   - 0.3997668575762271 edge_2_16_0_0 + 3.11005681514818 edge_3_2_0_0
   + 2.256678769965665 edge_3_4_0_0 + 0.4809430401936258 edge_3_5_0_0
   + 1.478800024169213 edge_3_6_0_0 + 0.4769755094869077 edge_3_7_0_0
   + 1.271555185651349 edge_3_8_0_0 - 0.6314408860626946 edge_3_9_0_0
   - 1.135197153530127 edge_3_10_0_0 - 1.993090029069408 edge_3_11_0_0
   - 1.002049904300473 edge_3_12_0_0 - 1.305691570701758 edge_3_14_0_0
   - 0.7411897522714123 edge_3_15_0_0 + 1.343337111819476 edge_3_16_0_0
   - 0.8586373504973052 edge_4_2_0_0 - 0.7128988594852458 edge_4_3_0_0
   - 0.2904656073826563 edge_4_5_0_0 - 0.0882157105829972 edge_4_6_0_0
   - 0.0983987963378637 edge_5_2_0_0 - 0.4728175463621355 edge_5_3_0_0
   + 0.0551989470086794 edge_5_4_0_0 + 0.7297953499774498 edge_5_6_0_0
   + 0.1386483780264204 edge_5_7_0_0 + 0.5092508554500518 edge_5_8_0_0
   - 0.5137816092187778 edge_5_9_0_0 - 0.2985374557888341 edge_5_10_0_0
   - 0.5967126209365127 edge_5_11_0_0 - 0.9620305164880514 edge_5_12_0_0
   - 1.003339598276216 edge_5_15_0_0 - 0.5470239549223904 edge_5_16_0_0
   + 1.140895301830833 edge_6_2_0_0 + 1.092008897069962 edge_6_3_0_0
   + 0.6055166136798604 edge_6_4_0_0 + 2.945453894638942 edge_6_5_0_0
   + 3.17570789853303 edge_6_7_0_0 + 1.970037409325652 edge_6_8_0_0
   + 1.42159110216617 edge_6_9_0_0 + 0.6389478060111188 edge_6_10_0_0
   + 0.1780823074337849 edge_6_11_0_0 + 1.133198651492259 edge_6_12_0_0
   + 1.594544518137269 edge_6_15_0_0 + 2.119497859305121 edge_6_16_0_0
   - 0.1849815646630425 edge_7_2_0_0 + 0.4289047904810134 edge_7_3_0_0
   + 0.2009556615999993 edge_7_4_0_0 + 0.3300005369898039 edge_7_5_0_0
   + 0.4163348591155792 edge_7_6_0_0 + 0.3532773994834731 edge_7_8_0_0
   + 0.8306117080200296 edge_7_9_0_0 + 0.4904332779611575 edge_7_10_0_0
   - 0.5069588831635881 edge_7_11_0_0 + 0.2056166552609051 edge_7_12_0_0
   + 0.0242308066653305 edge_7_14_0_0 + 0.3690405197705138 edge_7_15_0_0
   + 0.3532759430478429 edge_7_16_0_0 - 0.1783869147020344 edge_8_7_0_0
   + 0.2026045412613359 edge_8_9_0_0 + 0.3947230355309617 edge_9_2_0_0
   + 0.2752339081796645 edge_9_3_0_0 - 0.3038370377823664 edge_9_4_0_0
   + 1.037774024523348 edge_9_5_0_0 + 0.8537347288353871 edge_9_6_0_0
   + 1.055178761287592 edge_9_7_0_0 + 1.725953471943029 edge_9_8_0_0
   + 0.3161128931681573 edge_9_10_0_0 + 2.272084946896982 edge_9_12_0_0
   + 0.6372855110037177 edge_9_14_0_0 + 3.156968680358362 edge_9_15_0_0
   + 2.358190976413533 edge_9_16_0_0 - 0.9352587536138289 edge_10_2_0_0
   + 0.2747607118789138 edge_10_3_0_0 - 0.9501709521867755 edge_10_5_0_0
   - 0.6177396672339909 edge_10_6_0_0 + 0.4258170257900238 edge_10_7_0_0
   - 0.2304257175072629 edge_10_8_0_0 + 1.184498630016825 edge_10_9_0_0
   + 0.4113916672473593 edge_10_11_0_0 + 0.6508221933248535 edge_10_12_0_0
   - 0.1375306719933836 edge_10_14_0_0 + 0.9003715888818326 edge_10_15_0_0
   + 0.2169592800306419 edge_10_16_0_0 - 0.8956950250601244 edge_11_3_0_0
   + 0.6278118966031182 edge_11_10_0_0 + 0.8144227041910442 edge_11_12_0_0
   + 0.6271564921883264 edge_11_15_0_0 - 0.2805816907940865 edge_11_16_0_0
   - 0.9241878293547477 edge_12_2_0_0 + 0.381762909185405 edge_12_3_0_0
   - 1.306395369439236 edge_12_4_0_0 + 0.00433930890650221 edge_12_5_0_0
   - 1.05209874800124 edge_12_6_0_0 + 0.3138717544551447 edge_12_7_0_0
   - 0.1530919152978187 edge_12_8_0_0 + 0.7780106782615681 edge_12_9_0_0
   + 1.293669303024191 edge_12_10_0_0 + 3.153406854003573 edge_12_11_0_0
   + 0.6146412538420032 edge_12_14_0_0 + 1.671273300425175 edge_12_15_0_0
   + 0.9124307262707132 edge_12_16_0_0 + 0.0567405204724305 edge_14_3_0_0
   - 0.018168327079943 edge_14_7_0_0 + 0.1905427763922726 edge_14_9_0_0
   + 0.0610603673375466 edge_14_10_0_0 + 0.2306600577479894 edge_14_12_0_0
   - 0.0101859592414961 edge_14_15_0_0 + 0.1315337883169879 edge_14_16_0_0
   + 0.9231968853878811 edge_15_2_0_0 + 0.2582277937168566 edge_15_3_0_0
   + 0.2999709288981271 edge_15_4_0_0 + 1.308881681715892 edge_15_5_0_0
   + 0.443165910633185 edge_15_6_0_0 + 1.008005844347771 edge_15_7_0_0
   + 1.172169247899461 edge_15_8_0_0 + 1.547273485331077 edge_15_9_0_0
   + 2.458613506859929 edge_15_10_0_0 + 2.738089343070552 edge_15_11_0_0
   + 3.065011544261053 edge_15_12_0_0 + 2.354685367918548 edge_15_14_0_0
   + 2.02608446563013 edge_15_16_0_0 - 0.3436242553041282 edge_16_3_0_0
   - 0.4116123508042737 edge_16_7_0_0 - 0.3614978333987678 edge_16_9_0_0
   - 0.304352962348338 edge_16_10_0_0 - 0.4583246506189169 edge_16_12_0_0
   + 0.1369722853748579 edge_16_14_0_0 - 0.5000561467777827 edge_16_15_0_0
Subject To
 one_parent_1: = 1
 consume_one_flow_unit_1: = 1
 one_parent_2: edge_0_2_0_0 + edge_3_2_0_0 + edge_4_2_0_0 + edge_5_2_0_0
   + edge_6_2_0_0 + edge_7_2_0_0 + edge_9_2_0_0 + edge_10_2_0_0
   + edge_12_2_0_0 + edge_15_2_0_0 = 1
 consume_one_flow_unit_2: flow_0_2_0_0 - flow_2_3_0_0 - flow_2_4_0_0
   - flow_2_5_0_0 - flow_2_6_0_0 - flow_2_7_0_0 - flow_2_8_0_0
   - flow_2_9_0_0 - flow_2_15_0_0 - flow_2_16_0_0 + flow_3_2_0_0
   + flow_4_2_0_0 + flow_5_2_0_0 + flow_6_2_0_0 + flow_7_2_0_0
   + flow_9_2_0_0 + flow_10_2_0_0 + flow_12_2_0_0 + flow_15_2_0_0 = 1
 one_parent_3: edge_0_3_0_0 + edge_2_3_0_0 + edge_4_3_0_0 + edge_5_3_0_0
   + edge_6_3_0_0 + edge_7_3_0_0 + edge_9_3_0_0 + edge_10_3_0_0
   + edge_11_3_0_0 + edge_12_3_0_0 + edge_14_3_0_0 + edge_15_3_0_0
   + edge_16_3_0_0 = 1
 consume_one_flow_unit_3: flow_0_3_0_0 + flow_2_3_0_0 - flow_3_2_0_0
   - flow_3_4_0_0 - flow_3_5_0_0 - flow_3_6_0_0 - flow_3_7_0_0
   - flow_3_8_0_0 - flow_3_9_0_0 - flow_3_10_0_0 - flow_3_11_0_0
   - flow_3_12_0_0 - flow_3_14_0_0 - flow_3_15_0_0 - flow_3_16_0_0
   + flow_4_3_0_0 + flow_5_3_0_0 + flow_6_3_0_0 + flow_7_3_0_0
   + flow_9_3_0_0 + flow_10_3_0_0 + flow_11_3_0_0 + flow_12_3_0_0
   + flow_14_3_0_0 + flow_15_3_0_0 + flow_16_3_0_0 = 1
 one_parent_4: edge_0_4_0_0 + edge_2_4_0_0 + edge_3_4_0_0 + edge_5_4_0_0
   + edge_6_4_0_0 + edge_7_4_0_0 + edge_9_4_0_0 + edge_12_4_0_0
   + edge_15_4_0_0 = 1
 consume_one_flow_unit_4: flow_0_4_0_0 + flow_2_4_0_0 + flow_3_4_0_0
   - flow_4_2_0_0 - flow_4_3_0_0 - flow_4_5_0_0 - flow_4_6_0_0
   + flow_5_4_0_0 + flow_6_4_0_0 + flow_7_4_0_0 + flow_9_4_0_0
   + flow_12_4_0_0 + flow_15_4_0_0 = 1
 one_parent_5: edge_0_5_0_0 + edge_2_5_0_0 + edge_3_5_0_0 + edge_4_5_0_0
   + edge_6_5_0_0 + edge_7_5_0_0 + edge_9_5_0_0 + edge_10_5_0_0
   + edge_12_5_0_0 + edge_15_5_0_0 = 1
 consume_one_flow_unit_5: flow_0_5_0_0 + flow_2_5_0_0 + flow_3_5_0_0
   + flow_4_5_0_0 - flow_5_2_0_0 - flow_5_3_0_0 - flow_5_4_0_0
   - flow_5_6_0_0 - flow_5_7_0_0 - flow_5_8_0_0 - flow_5_9_0_0
   - flow_5_10_0_0 - flow_5_11_0_0 - flow_5_12_0_0 - flow_5_15_0_0
   - flow_5_16_0_0 + flow_6_5_0_0 + flow_7_5_0_0 + flow_9_5_0_0
   + flow_10_5_0_0 + flow_12_5_0_0 + flow_15_5_0_0 = 1
 one_parent_6: edge_0_6_0_0 + edge_2_6_0_0 + edge_3_6_0_0 + edge_4_6_0_0
   + edge_5_6_0_0 + edge_7_6_0_0 + edge_9_6_0_0 + edge_10_6_0_0
   + edge_12_6_0_0 + edge_15_6_0_0 = 1
 consume_one_flow_unit_6: flow_0_6_0_0 + flow_2_6_0_0 + flow_3_6_0_0
   + flow_4_6_0_0 + flow_5_6_0_0 - flow_6_2_0_0 - flow_6_3_0_0
   - flow_6_4_0_0 - flow_6_5_0_0 - flow_6_7_0_0 - flow_6_8_0_0
   - flow_6_9_0_0 - flow_6_10_0_0 - flow_6_11_0_0 - flow_6_12_0_0
   - flow_6_15_0_0 - flow_6_16_0_0 + flow_7_6_0_0 + flow_9_6_0_0
   + flow_10_6_0_0 + flow_12_6_0_0 + flow_15_6_0_0 = 1
 one_parent_7: edge_0_7_0_0 + edge_2_7_0_0 + edge_3_7_0_0 + edge_5_7_0_0
   + edge_6_7_0_0 + edge_8_7_0_0 + edge_9_7_0_0 + edge_10_7_0_0
   + edge_12_7_0_0 + edge_14_7_0_0 + edge_15_7_0_0 + edge_16_7_0_0 = 1
 consume_one_flow_unit_7: flow_0_7_0_0 + flow_2_7_0_0 + flow_3_7_0_0
   + flow_5_7_0_0 + flow_6_7_0_0 - flow_7_2_0_0 - flow_7_3_0_0
   - flow_7_4_0_0 - flow_7_5_0_0 - flow_7_6_0_0 - flow_7_8_0_0
   - flow_7_9_0_0 - flow_7_10_0_0 - flow_7_11_0_0 - flow_7_12_0_0
   - flow_7_14_0_0 - flow_7_15_0_0 - flow_7_16_0_0 + flow_8_7_0_0
   + flow_9_7_0_0 + flow_10_7_0_0 + flow_12_7_0_0 + flow_14_7_0_0
   + flow_15_7_0_0 + flow_16_7_0_0 = 1
 one_parent_8: edge_0_8_0_0 + edge_2_8_0_0 + edge_3_8_0_0 + edge_5_8_0_0
   + edge_6_8_0_0 + edge_7_8_0_0 + edge_9_8_0_0 + edge_10_8_0_0
   + edge_12_8_0_0 + edge_15_8_0_0 = 1
 consume_one_flow_unit_8: flow_0_8_0_0 + flow_2_8_0_0 + flow_3_8_0_0
   + flow_5_8_0_0 + flow_6_8_0_0 + flow_7_8_0_0 - flow_8_7_0_0
   - flow_8_9_0_0 + flow_9_8_0_0 + flow_10_8_0_0 + flow_12_8_0_0
   + flow_15_8_0_0 = 1
 one_parent_9: edge_0_9_0_0 + edge_2_9_0_0 + edge_3_9_0_0 + edge_5_9_0_0
   + edge_6_9_0_0 + edge_7_9_0_0 + edge_8_9_0_0 + edge_10_9_0_0
   + edge_12_9_0_0 + edge_14_9_0_0 + edge_15_9_0_0 + edge_16_9_0_0 = 1
 consume_one_flow_unit_9: flow_0_9_0_0 + flow_2_9_0_0 + flow_3_9_0_0
   + flow_5_9_0_0 + flow_6_9_0_0 + flow_7_9_0_0 + flow_8_9_0_0
   - flow_9_2_0_0 - flow_9_3_0_0 - flow_9_4_0_0 - flow_9_5_0_0
   - flow_9_6_0_0 - flow_9_7_0_0 - flow_9_8_0_0 - flow_9_10_0_0
   - flow_9_12_0_0 - flow_9_14_0_0 - flow_9_15_0_0 - flow_9_16_0_0
   + flow_10_9_0_0 + flow_12_9_0_0 + flow_14_9_0_0 + flow_15_9_0_0
   + flow_16_9_0_0 = 1
 one_parent_10: edge_0_10_0_0 + edge_3_10_0_0 + edge_5_10_0_0
   + edge_6_10_0_0 + edge_7_10_0_0 + edge_9_10_0_0 + edge_11_10_0_0
   + edge_12_10_0_0 + edge_14_10_0_0 + edge_15_10_0_0 + edge_16_10_0_0 = 1
 consume_one_flow_unit_10: flow_0_10_0_0 + flow_3_10_0_0 + flow_5_10_0_0
   + flow_6_10_0_0 + flow_7_10_0_0 + flow_9_10_0_0 - flow_10_2_0_0
   - flow_10_3_0_0 - flow_10_5_0_0 - flow_10_6_0_0 - flow_10_7_0_0
   - flow_10_8_0_0 - flow_10_9_0_0 - flow_10_11_0_0 - flow_10_12_0_0
   - flow_10_14_0_0 - flow_10_15_0_0 - flow_10_16_0_0 + flow_11_10_0_0
   + flow_12_10_0_0 + flow_14_10_0_0 + flow_15_10_0_0 + flow_16_10_0_0 = 1
 one_parent_11: edge_0_11_0_0 + edge_3_11_0_0 + edge_5_11_0_0
   + edge_6_11_0_0 + edge_7_11_0_0 + edge_10_11_0_0 + edge_12_11_0_0
   + edge_15_11_0_0 = 1
 consume_one_flow_unit_11: flow_0_11_0_0 + flow_3_11_0_0 + flow_5_11_0_0
   + flow_6_11_0_0 + flow_7_11_0_0 + flow_10_11_0_0 - flow_11_3_0_0
   - flow_11_10_0_0 - flow_11_12_0_0 - flow_11_15_0_0 - flow_11_16_0_0
   + flow_12_11_0_0 + flow_15_11_0_0 = 1
 one_parent_12: edge_0_12_0_0 + edge_3_12_0_0 + edge_5_12_0_0
   + edge_6_12_0_0 + edge_7_12_0_0 + edge_9_12_0_0 + edge_10_12_0_0
   + edge_11_12_0_0 + edge_14_12_0_0 + edge_15_12_0_0 + edge_16_12_0_0 = 1
 consume_one_flow_unit_12: flow_0_12_0_0 + flow_3_12_0_0 + flow_5_12_0_0
   + flow_6_12_0_0 + flow_7_12_0_0 + flow_9_12_0_0 + flow_10_12_0_0
   + flow_11_12_0_0 - flow_12_2_0_0 - flow_12_3_0_0 - flow_12_4_0_0
   - flow_12_5_0_0 - flow_12_6_0_0 - flow_12_7_0_0 - flow_12_8_0_0
   - flow_12_9_0_0 - flow_12_10_0_0 - flow_12_11_0_0 - flow_12_14_0_0
   - flow_12_15_0_0 - flow_12_16_0_0 + flow_14_12_0_0 + flow_15_12_0_0
   + flow_16_12_0_0 = 1
 one_parent_13: = 1
 consume_one_flow_unit_13: = 1
 one_parent_14: edge_0_14_0_0 + edge_3_14_0_0 + edge_7_14_0_0
   + edge_9_14_0_0 + edge_10_14_0_0 + edge_12_14_0_0 + edge_15_14_0_0
   + edge_16_14_0_0 = 1
 consume_one_flow_unit_14: flow_0_14_0_0 + flow_3_14_0_0 + flow_7_14_0_0
   + flow_9_14_0_0 + flow_10_14_0_0 + flow_12_14_0_0 - flow_14_3_0_0
   - flow_14_7_0_0 - flow_14_9_0_0 - flow_14_10_0_0 - flow_14_12_0_0
   - flow_14_15_0_0 - flow_14_16_0_0 + flow_15_14_0_0 + flow_16_14_0_0 = 1
 one_parent_15: edge_0_15_0_0 + edge_2_15_0_0 + edge_3_15_0_0
   + edge_5_15_0_0 + edge_6_15_0_0 + edge_7_15_0_0 + edge_9_15_0_0
   + edge_10_15_0_0 + edge_11_15_0_0 + edge_12_15_0_0 + edge_14_15_0_0
   + edge_16_15_0_0 = 1
 consume_one_flow_unit_15: flow_0_15_0_0 + flow_2_15_0_0 + flow_3_15_0_0
   + flow_5_15_0_0 + flow_6_15_0_0 + flow_7_15_0_0 + flow_9_15_0_0
   + flow_10_15_0_0 + flow_11_15_0_0 + flow_12_15_0_0 + flow_14_15_0_0
   - flow_15_2_0_0 - flow_15_3_0_0 - flow_15_4_0_0 - flow_15_5_0_0
   - flow_15_6_0_0 - flow_15_7_0_0 - flow_15_8_0_0 - flow_15_9_0_0
   - flow_15_10_0_0 - flow_15_11_0_0 - flow_15_12_0_0 - flow_15_14_0_0
   - flow_15_16_0_0 + flow_16_15_0_0 = 1
 one_parent_16: edge_0_16_0_0 + edge_2_16_0_0 + edge_3_16_0_0
   + edge_5_16_0_0 + edge_6_16_0_0 + edge_7_16_0_0 + edge_9_16_0_0
   + edge_10_16_0_0 + edge_11_16_0_0 + edge_12_16_0_0 + edge_14_16_0_0
   + edge_15_16_0_0 = 1
 consume_one_flow_unit_16: flow_0_16_0_0 + flow_2_16_0_0 + flow_3_16_0_0
   + flow_5_16_0_0 + flow_6_16_0_0 + flow_7_16_0_0 + flow_9_16_0_0
   + flow_10_16_0_0 + flow_11_16_0_0 + flow_12_16_0_0 + flow_14_16_0_0
   + flow_15_16_0_0 - flow_16_3_0_0 - flow_16_7_0_0 - flow_16_9_0_0
   - flow_16_10_0_0 - flow_16_12_0_0 - flow_16_14_0_0 - flow_16_15_0_0 = 1
 root_flow: flow_0_2_0_0 + flow_0_3_0_0 + flow_0_4_0_0 + flow_0_5_0_0
   + flow_0_6_0_0 + flow_0_7_0_0 + flow_0_8_0_0 + flow_0_9_0_0
   + flow_0_10_0_0 + flow_0_11_0_0 + flow_0_12_0_0 + flow_0_14_0_0
   + flow_0_15_0_0 + flow_0_16_0_0 = 16
 inactive_no_flow_0_2_0_0: flow_0_2_0_0 - 1000 edge_0_2_0_0 <= 0
 inactive_no_flow_0_3_0_0: flow_0_3_0_0 - 1000 edge_0_3_0_0 <= 0
 inactive_no_flow_0_4_0_0: flow_0_4_0_0 - 1000 edge_0_4_0_0 <= 0
 inactive_no_flow_0_5_0_0: flow_0_5_0_0 - 1000 edge_0_5_0_0 <= 0
 inactive_no_flow_0_6_0_0: flow_0_6_0_0 - 1000 edge_0_6_0_0 <= 0
 inactive_no_flow_0_7_0_0: flow_0_7_0_0 - 1000 edge_0_7_0_0 <= 0
 inactive_no_flow_0_8_0_0: flow_0_8_0_0 - 1000 edge_0_8_0_0 <= 0
 inactive_no_flow_0_9_0_0: flow_0_9_0_0 - 1000 edge_0_9_0_0 <= 0
 inactive_no_flow_0_10_0_0: flow_0_10_0_0 - 1000 edge_0_10_0_0 <= 0
 inactive_no_flow_0_11_0_0: flow_0_11_0_0 - 1000 edge_0_11_0_0 <= 0
 inactive_no_flow_0_12_0_0: flow_0_12_0_0 - 1000 edge_0_12_0_0 <= 0
 inactive_no_flow_0_14_0_0: flow_0_14_0_0 - 1000 edge_0_14_0_0 <= 0
 inactive_no_flow_0_15_0_0: flow_0_15_0_0 - 1000 edge_0_15_0_0 <= 0
 inactive_no_flow_0_16_0_0: flow_0_16_0_0 - 1000 edge_0_16_0_0 <= 0
 inactive_no_flow_2_3_0_0: flow_2_3_0_0 - 1000 edge_2_3_0_0 <= 0
 inactive_no_flow_2_4_0_0: flow_2_4_0_0 - 1000 edge_2_4_0_0 <= 0
 inactive_no_flow_2_5_0_0: flow_2_5_0_0 - 1000 edge_2_5_0_0 <= 0
 inactive_no_flow_2_6_0_0: flow_2_6_0_0 - 1000 edge_2_6_0_0 <= 0
 inactive_no_flow_2_7_0_0: flow_2_7_0_0 - 1000 edge_2_7_0_0 <= 0
 inactive_no_flow_2_8_0_0: flow_2_8_0_0 - 1000 edge_2_8_0_0 <= 0
 inactive_no_flow_2_9_0_0: flow_2_9_0_0 - 1000 edge_2_9_0_0 <= 0
 inactive_no_flow_2_15_0_0: flow_2_15_0_0 - 1000 edge_2_15_0_0 <= 0
 inactive_no_flow_2_16_0_0: flow_2_16_0_0 - 1000 edge_2_16_0_0 <= 0
 inactive_no_flow_3_2_0_0: flow_3_2_0_0 - 1000 edge_3_2_0_0 <= 0
 inactive_no_flow_3_4_0_0: flow_3_4_0_0 - 1000 edge_3_4_0_0 <= 0
 inactive_no_flow_3_5_0_0: flow_3_5_0_0 - 1000 edge_3_5_0_0 <= 0
 inactive_no_flow_3_6_0_0: flow_3_6_0_0 - 1000 edge_3_6_0_0 <= 0
 inactive_no_flow_3_7_0_0: flow_3_7_0_0 - 1000 edge_3_7_0_0 <= 0
 inactive_no_flow_3_8_0_0: flow_3_8_0_0 - 1000 edge_3_8_0_0 <= 0
 inactive_no_flow_3_9_0_0: flow_3_9_0_0 - 1000 edge_3_9_0_0 <= 0
 inactive_no_flow_3_10_0_0: flow_3_10_0_0 - 1000 edge_3_10_0_0 <= 0
 inactive_no_flow_3_11_0_0: flow_3_11_0_0 - 1000 edge_3_11_0_0 <= 0
 inactive_no_flow_3_12_0_0: flow_3_12_0_0 - 1000 edge_3_12_0_0 <= 0
 inactive_no_flow_3_14_0_0: flow_3_14_0_0 - 1000 edge_3_14_0_0 <= 0
 inactive_no_flow_3_15_0_0: flow_3_15_0_0 - 1000 edge_3_15_0_0 <= 0
 inactive_no_flow_3_16_0_0: flow_3_16_0_0 - 1000 edge_3_16_0_0 <= 0
 inactive_no_flow_4_2_0_0: flow_4_2_0_0 - 1000 edge_4_2_0_0 <= 0
 inactive_no_flow_4_3_0_0: flow_4_3_0_0 - 1000 edge_4_3_0_0 <= 0
 inactive_no_flow_4_5_0_0: flow_4_5_0_0 - 1000 edge_4_5_0_0 <= 0
 inactive_no_flow_4_6_0_0: flow_4_6_0_0 - 1000 edge_4_6_0_0 <= 0
 inactive_no_flow_5_2_0_0: flow_5_2_0_0 - 1000 edge_5_2_0_0 <= 0
 inactive_no_flow_5_3_0_0: flow_5_3_0_0 - 1000 edge_5_3_0_0 <= 0
 inactive_no_flow_5_4_0_0: flow_5_4_0_0 - 1000 edge_5_4_0_0 <= 0
 inactive_no_flow_5_6_0_0: flow_5_6_0_0 - 1000 edge_5_6_0_0 <= 0
 inactive_no_flow_5_7_0_0: flow_5_7_0_0 - 1000 edge_5_7_0_0 <= 0
 inactive_no_flow_5_8_0_0: flow_5_8_0_0 - 1000 edge_5_8_0_0 <= 0
 inactive_no_flow_5_9_0_0: flow_5_9_0_0 - 1000 edge_5_9_0_0 <= 0
 inactive_no_flow_5_10_0_0: flow_5_10_0_0 - 1000 edge_5_10_0_0 <= 0
 inactive_no_flow_5_11_0_0: flow_5_11_0_0 - 1000 edge_5_11_0_0 <= 0
 inactive_no_flow_5_12_0_0: flow_5_12_0_0 - 1000 edge_5_12_0_0 <= 0
 inactive_no_flow_5_15_0_0: flow_5_15_0_0 - 1000 edge_5_15_0_0 <= 0
 inactive_no_flow_5_16_0_0: flow_5_16_0_0 - 1000 edge_5_16_0_0 <= 0
 inactive_no_flow_6_2_0_0: flow_6_2_0_0 - 1000 edge_6_2_0_0 <= 0
 inactive_no_flow_6_3_0_0: flow_6_3_0_0 - 1000 edge_6_3_0_0 <= 0
 inactive_no_flow_6_4_0_0: flow_6_4_0_0 - 1000 edge_6_4_0_0 <= 0
 inactive_no_flow_6_5_0_0: flow_6_5_0_0 - 1000 edge_6_5_0_0 <= 0
 inactive_no_flow_6_7_0_0: flow_6_7_0_0 - 1000 edge_6_7_0_0 <= 0
 inactive_no_flow_6_8_0_0: flow_6_8_0_0 - 1000 edge_6_8_0_0 <= 0
 inactive_no_flow_6_9_0_0: flow_6_9_0_0 - 1000 edge_6_9_0_0 <= 0
 inactive_no_flow_6_10_0_0: flow_6_10_0_0 - 1000 edge_6_10_0_0 <= 0
 inactive_no_flow_6_11_0_0: flow_6_11_0_0 - 1000 edge_6_11_0_0 <= 0
 inactive_no_flow_6_12_0_0: flow_6_12_0_0 - 1000 edge_6_12_0_0 <= 0
 inactive_no_flow_6_15_0_0: flow_6_15_0_0 - 1000 edge_6_15_0_0 <= 0
 inactive_no_flow_6_16_0_0: flow_6_16_0_0 - 1000 edge_6_16_0_0 <= 0
 inactive_no_flow_7_2_0_0: flow_7_2_0_0 - 1000 edge_7_2_0_0 <= 0
 inactive_no_flow_7_3_0_0: flow_7_3_0_0 - 1000 edge_7_3_0_0 <= 0
 inactive_no_flow_7_4_0_0: flow_7_4_0_0 - 1000 edge_7_4_0_0 <= 0
 inactive_no_flow_7_5_0_0: flow_7_5_0_0 - 1000 edge_7_5_0_0 <= 0
 inactive_no_flow_7_6_0_0: flow_7_6_0_0 - 1000 edge_7_6_0_0 <= 0
 inactive_no_flow_7_8_0_0: flow_7_8_0_0 - 1000 edge_7_8_0_0 <= 0
 inactive_no_flow_7_9_0_0: flow_7_9_0_0 - 1000 edge_7_9_0_0 <= 0
 inactive_no_flow_7_10_0_0: flow_7_10_0_0 - 1000 edge_7_10_0_0 <= 0
 inactive_no_flow_7_11_0_0: flow_7_11_0_0 - 1000 edge_7_11_0_0 <= 0
 inactive_no_flow_7_12_0_0: flow_7_12_0_0 - 1000 edge_7_12_0_0 <= 0
 inactive_no_flow_7_14_0_0: flow_7_14_0_0 - 1000 edge_7_14_0_0 <= 0
 inactive_no_flow_7_15_0_0: flow_7_15_0_0 - 1000 edge_7_15_0_0 <= 0
 inactive_no_flow_7_16_0_0: flow_7_16_0_0 - 1000 edge_7_16_0_0 <= 0
 inactive_no_flow_8_7_0_0: flow_8_7_0_0 - 1000 edge_8_7_0_0 <= 0
 inactive_no_flow_8_9_0_0: flow_8_9_0_0 - 1000 edge_8_9_0_0 <= 0
 inactive_no_flow_9_2_0_0: flow_9_2_0_0 - 1000 edge_9_2_0_0 <= 0
 inactive_no_flow_9_3_0_0: flow_9_3_0_0 - 1000 edge_9_3_0_0 <= 0
 inactive_no_flow_9_4_0_0: flow_9_4_0_0 - 1000 edge_9_4_0_0 <= 0
 inactive_no_flow_9_5_0_0: flow_9_5_0_0 - 1000 edge_9_5_0_0 <= 0
 inactive_no_flow_9_6_0_0: flow_9_6_0_0 - 1000 edge_9_6_0_0 <= 0
 inactive_no_flow_9_7_0_0: flow_9_7_0_0 - 1000 edge_9_7_0_0 <= 0
 inactive_no_flow_9_8_0_0: flow_9_8_0_0 - 1000 edge_9_8_0_0 <= 0
 inactive_no_flow_9_10_0_0: flow_9_10_0_0 - 1000 edge_9_10_0_0 <= 0
 inactive_no_flow_9_12_0_0: flow_9_12_0_0 - 1000 edge_9_12_0_0 <= 0
 inactive_no_flow_9_14_0_0: flow_9_14_0_0 - 1000 edge_9_14_0_0 <= 0
 inactive_no_flow_9_15_0_0: flow_9_15_0_0 - 1000 edge_9_15_0_0 <= 0
 inactive_no_flow_9_16_0_0: flow_9_16_0_0 - 1000 edge_9_16_0_0 <= 0
 inactive_no_flow_10_2_0_0: flow_10_2_0_0 - 1000 edge_10_2_0_0 <= 0
 inactive_no_flow_10_3_0_0: flow_10_3_0_0 - 1000 edge_10_3_0_0 <= 0
 inactive_no_flow_10_5_0_0: flow_10_5_0_0 - 1000 edge_10_5_0_0 <= 0
 inactive_no_flow_10_6_0_0: flow_10_6_0_0 - 1000 edge_10_6_0_0 <= 0
 inactive_no_flow_10_7_0_0: flow_10_7_0_0 - 1000 edge_10_7_0_0 <= 0
 inactive_no_flow_10_8_0_0: flow_10_8_0_0 - 1000 edge_10_8_0_0 <= 0
 inactive_no_flow_10_9_0_0: flow_10_9_0_0 - 1000 edge_10_9_0_0 <= 0
 inactive_no_flow_10_11_0_0: flow_10_11_0_0 - 1000 edge_10_11_0_0 <= 0
 inactive_no_flow_10_12_0_0: flow_10_12_0_0 - 1000 edge_10_12_0_0 <= 0
 inactive_no_flow_10_14_0_0: flow_10_14_0_0 - 1000 edge_10_14_0_0 <= 0
 inactive_no_flow_10_15_0_0: flow_10_15_0_0 - 1000 edge_10_15_0_0 <= 0
 inactive_no_flow_10_16_0_0: flow_10_16_0_0 - 1000 edge_10_16_0_0 <= 0
 inactive_no_flow_11_3_0_0: flow_11_3_0_0 - 1000 edge_11_3_0_0 <= 0
 inactive_no_flow_11_10_0_0: flow_11_10_0_0 - 1000 edge_11_10_0_0 <= 0
 inactive_no_flow_11_12_0_0: flow_11_12_0_0 - 1000 edge_11_12_0_0 <= 0
 inactive_no_flow_11_15_0_0: flow_11_15_0_0 - 1000 edge_11_15_0_0 <= 0
 inactive_no_flow_11_16_0_0: flow_11_16_0_0 - 1000 edge_11_16_0_0 <= 0
 inactive_no_flow_12_2_0_0: flow_12_2_0_0 - 1000 edge_12_2_0_0 <= 0
 inactive_no_flow_12_3_0_0: flow_12_3_0_0 - 1000 edge_12_3_0_0 <= 0
 inactive_no_flow_12_4_0_0: flow_12_4_0_0 - 1000 edge_12_4_0_0 <= 0
 inactive_no_flow_12_5_0_0: flow_12_5_0_0 - 1000 edge_12_5_0_0 <= 0
 inactive_no_flow_12_6_0_0: flow_12_6_0_0 - 1000 edge_12_6_0_0 <= 0
 inactive_no_flow_12_7_0_0: flow_12_7_0_0 - 1000 edge_12_7_0_0 <= 0
 inactive_no_flow_12_8_0_0: flow_12_8_0_0 - 1000 edge_12_8_0_0 <= 0
 inactive_no_flow_12_9_0_0: flow_12_9_0_0 - 1000 edge_12_9_0_0 <= 0
 inactive_no_flow_12_10_0_0: flow_12_10_0_0 - 1000 edge_12_10_0_0 <= 0
 inactive_no_flow_12_11_0_0: flow_12_11_0_0 - 1000 edge_12_11_0_0 <= 0
 inactive_no_flow_12_14_0_0: flow_12_14_0_0 - 1000 edge_12_14_0_0 <= 0
 inactive_no_flow_12_15_0_0: flow_12_15_0_0 - 1000 edge_12_15_0_0 <= 0
 inactive_no_flow_12_16_0_0: flow_12_16_0_0 - 1000 edge_12_16_0_0 <= 0
 inactive_no_flow_14_3_0_0: flow_14_3_0_0 - 1000 edge_14_3_0_0 <= 0
 inactive_no_flow_14_7_0_0: flow_14_7_0_0 - 1000 edge_14_7_0_0 <= 0
 inactive_no_flow_14_9_0_0: flow_14_9_0_0 - 1000 edge_14_9_0_0 <= 0
 inactive_no_flow_14_10_0_0: flow_14_10_0_0 - 1000 edge_14_10_0_0 <= 0
 inactive_no_flow_14_12_0_0: flow_14_12_0_0 - 1000 edge_14_12_0_0 <= 0
 inactive_no_flow_14_15_0_0: flow_14_15_0_0 - 1000 edge_14_15_0_0 <= 0
 inactive_no_flow_14_16_0_0: flow_14_16_0_0 - 1000 edge_14_16_0_0 <= 0
 inactive_no_flow_15_2_0_0: flow_15_2_0_0 - 1000 edge_15_2_0_0 <= 0
 inactive_no_flow_15_3_0_0: flow_15_3_0_0 - 1000 edge_15_3_0_0 <= 0
 inactive_no_flow_15_4_0_0: flow_15_4_0_0 - 1000 edge_15_4_0_0 <= 0
 inactive_no_flow_15_5_0_0: flow_15_5_0_0 - 1000 edge_15_5_0_0 <= 0
 inactive_no_flow_15_6_0_0: flow_15_6_0_0 - 1000 edge_15_6_0_0 <= 0
 inactive_no_flow_15_7_0_0: flow_15_7_0_0 - 1000 edge_15_7_0_0 <= 0
 inactive_no_flow_15_8_0_0: flow_15_8_0_0 - 1000 edge_15_8_0_0 <= 0
 inactive_no_flow_15_9_0_0: flow_15_9_0_0 - 1000 edge_15_9_0_0 <= 0
 inactive_no_flow_15_10_0_0: flow_15_10_0_0 - 1000 edge_15_10_0_0 <= 0
 inactive_no_flow_15_11_0_0: flow_15_11_0_0 - 1000 edge_15_11_0_0 <= 0
 inactive_no_flow_15_12_0_0: flow_15_12_0_0 - 1000 edge_15_12_0_0 <= 0
 inactive_no_flow_15_14_0_0: flow_15_14_0_0 - 1000 edge_15_14_0_0 <= 0
 inactive_no_flow_15_16_0_0: flow_15_16_0_0 - 1000 edge_15_16_0_0 <= 0
 inactive_no_flow_16_3_0_0: flow_16_3_0_0 - 1000 edge_16_3_0_0 <= 0
 inactive_no_flow_16_7_0_0: flow_16_7_0_0 - 1000 edge_16_7_0_0 <= 0
 inactive_no_flow_16_9_0_0: flow_16_9_0_0 - 1000 edge_16_9_0_0 <= 0
 inactive_no_flow_16_10_0_0: flow_16_10_0_0 - 1000 edge_16_10_0_0 <= 0
 inactive_no_flow_16_12_0_0: flow_16_12_0_0 - 1000 edge_16_12_0_0 <= 0
 inactive_no_flow_16_14_0_0: flow_16_14_0_0 - 1000 edge_16_14_0_0 <= 0
 inactive_no_flow_16_15_0_0: flow_16_15_0_0 - 1000 edge_16_15_0_0 <= 0
Bounds
Binaries
 edge_0_2_0_0 edge_0_3_0_0 edge_0_4_0_0 edge_0_5_0_0 edge_0_6_0_0
 edge_0_7_0_0 edge_0_8_0_0 edge_0_9_0_0 edge_0_10_0_0 edge_0_11_0_0
 edge_0_12_0_0 edge_0_14_0_0 edge_0_15_0_0 edge_0_16_0_0 edge_2_3_0_0
 edge_2_4_0_0 edge_2_5_0_0 edge_2_6_0_0 edge_2_7_0_0 edge_2_8_0_0
 edge_2_9_0_0 edge_2_15_0_0 edge_2_16_0_0 edge_3_2_0_0 edge_3_4_0_0
 edge_3_5_0_0 edge_3_6_0_0 edge_3_7_0_0 edge_3_8_0_0 edge_3_9_0_0
 edge_3_10_0_0 edge_3_11_0_0 edge_3_12_0_0 edge_3_14_0_0 edge_3_15_0_0
 edge_3_16_0_0 edge_4_2_0_0 edge_4_3_0_0 edge_4_5_0_0 edge_4_6_0_0
 edge_5_2_0_0 edge_5_3_0_0 edge_5_4_0_0 edge_5_6_0_0 edge_5_7_0_0
 edge_5_8_0_0 edge_5_9_0_0 edge_5_10_0_0 edge_5_11_0_0 edge_5_12_0_0
 edge_5_15_0_0 edge_5_16_0_0 edge_6_2_0_0 edge_6_3_0_0 edge_6_4_0_0
 edge_6_5_0_0 edge_6_7_0_0 edge_6_8_0_0 edge_6_9_0_0 edge_6_10_0_0
 edge_6_11_0_0 edge_6_12_0_0 edge_6_15_0_0 edge_6_16_0_0 edge_7_2_0_0
 edge_7_3_0_0 edge_7_4_0_0 edge_7_5_0_0 edge_7_6_0_0 edge_7_8_0_0
 edge_7_9_0_0 edge_7_10_0_0 edge_7_11_0_0 edge_7_12_0_0 edge_7_14_0_0
 edge_7_15_0_0 edge_7_16_0_0 edge_8_7_0_0 edge_8_9_0_0 edge_9_2_0_0
 edge_9_3_0_0 edge_9_4_0_0 edge_9_5_0_0 edge_9_6_0_0 edge_9_7_0_0
 edge_9_8_0_0 edge_9_10_0_0 edge_9_12_0_0 edge_9_14_0_0 edge_9_15_0_0
 edge_9_16_0_0 edge_10_2_0_0 edge_10_3_0_0 edge_10_5_0_0 edge_10_6_0_0
 edge_10_7_0_0 edge_10_8_0_0 edge_10_9_0_0 edge_10_11_0_0 edge_10_12_0_0
 edge_10_14_0_0 edge_10_15_0_0 edge_10_16_0_0 edge_11_3_0_0 edge_11_10_0_0
 edge_11_12_0_0 edge_11_15_0_0 edge_11_16_0_0 edge_12_2_0_0 edge_12_3_0_0
 edge_12_4_0_0 edge_12_5_0_0 edge_12_6_0_0 edge_12_7_0_0 edge_12_8_0_0
 edge_12_9_0_0 edge_12_10_0_0 edge_12_11_0_0 edge_12_14_0_0 edge_12_15_0_0
 edge_12_16_0_0 edge_14_3_0_0 edge_14_7_0_0 edge_14_9_0_0 edge_14_10_0_0
 edge_14_12_0_0 edge_14_15_0_0 edge_14_16_0_0 edge_15_2_0_0 edge_15_3_0_0
 edge_15_4_0_0 edge_15_5_0_0 edge_15_6_0_0 edge_15_7_0_0 edge_15_8_0_0
 edge_15_9_0_0 edge_15_10_0_0 edge_15_11_0_0 edge_15_12_0_0 edge_15_14_0_0
 edge_15_16_0_0 edge_16_3_0_0 edge_16_7_0_0 edge_16_9_0_0 edge_16_10_0_0
 edge_16_12_0_0 edge_16_14_0_0 edge_16_15_0_0
End
